Route #1: 53
Route #2: 27
Route #3: 28
Route #4: 52 18 83 60 5 84 17 45 8 82 7 88 31 70 30 20 51 9 81 33 79 3 77 76 50 1 69
Route #5: 89 6 94 95 97 92 59 99 96 93 85 91 100 37 98 61 16 44 14 42 87 13 58 40 26
Route #6: 21 73 72 74 22 41 75 56 39 23 67 25 55 54 80 68 12
Route #7: 46 36 49 64 11 19 47 48 62 10 90 63 32 66 65 71 35 34 78 29 24 4
Route #8: 2 57 15 43 38 86
cost: 830.9968722463341
